Maximize
  - 3.6768439873172 edge_0_1_0_0 - 3.0327966993082 edge_0_3_0_0
   + 0.0039052564001216 edge_0_4_0_0 - 2.449231951215 edge_0_6_0_0
   - 3.4915382861805 edge_0_11_0_0 - 2.25267 edge_0_13_0_0
   - 1.2388693229259 edge_0_17_0_0 - 2.3036567057662 edge_0_21_0_0
   - 0.1942794480163434 edge_1_3_0_0 - 0.1437259053331344 edge_1_4_0_0
   - 0.4388341512301098 edge_1_6_0_0 - 0.3642159637829924 edge_1_10_0_0
   - 0.3415683981511274 edge_1_11_0_0 - 1.155238757803719 edge_2_1_0_0
   - 0.0348443407471173 edge_3_1_0_0 + 3.273217614464579 edge_3_2_0_0
   + 0.3910948542679507 edge_3_4_0_0 - 0.1440418618653568 edge_3_6_0_0
   + 0.4278880656721785 edge_3_10_0_0 + 0.2008956916439225 edge_3_11_0_0
   + 0.1972976667806733 edge_3_14_0_0 - 0.9710085164724772 edge_3_15_0_0
   - 1.6859705136458 edge_3_16_0_0 + 0.960827321719006 edge_3_22_0_0
   + 1.569126345692441 edge_4_1_0_0 + 1.363836326892102 edge_4_2_0_0
   + 2.313944834262761 edge_4_3_0_0 + 1.1068200111094 edge_4_5_0_0
   + 2.596614730654355 edge_4_6_0_0 + 3.033166596370414 edge_4_8_0_0
   + 2.926261963465659 edge_4_10_0_0 + 2.967572821728392 edge_4_11_0_0
   + 1.033124723694577 edge_4_12_0_0 + 1.682531503338 edge_4_13_0_0
   + 3.095190816129413 edge_4_14_0_0 + 2.292878071685566 edge_4_15_0_0
   + 1.075345142813767 edge_4_16_0_0 + 2.570012732564789 edge_4_17_0_0
   + 0.5278101733958382 edge_4_18_0_0 + 0.00360967682841858 edge_4_19_0_0
   - 0.4294814046610143 edge_4_20_0_0 + 0.8781193386359705 edge_4_21_0_0
   + 5.286905454115913 edge_4_22_0_0 - 1.206631075976353 edge_5_3_0_0
   - 0.2594150617523283 edge_5_4_0_0 + 0.1496827038630326 edge_5_10_0_0
   - 0.2203778818899074 edge_6_1_0_0 + 0.7976450626727867 edge_6_2_0_0
   + 0.902002155404304 edge_6_3_0_0 + 1.103238795954711 edge_6_4_0_0
   + 3.800694843835223 edge_6_5_0_0 + 0.6006026270944486 edge_6_10_0_0
   + 0.5255525253473105 edge_6_11_0_0 - 0.1939046756490557 edge_6_12_0_0
   + 0.27982337557678 edge_6_13_0_0 + 0.8661861406328514 edge_6_14_0_0
   + 0.1117863713541428 edge_6_15_0_0 + 0.22016690449887 edge_6_16_0_0
   - 0.8930857947151185 edge_6_17_0_0 - 1.728491075458296 edge_6_19_0_0
   - 1.832206859314145 edge_6_21_0_0 - 0.5433628932818303 edge_8_1_0_0
   - 0.5085342315329991 edge_8_3_0_0 + 0.839520086952955 edge_8_10_0_0
   + 0.7239170070543676 edge_8_11_0_0 + 0.0793049101645709 edge_8_12_0_0
   + 0.7719721842001599 edge_8_13_0_0 + 0.4079296128541354 edge_8_14_0_0
   - 0.1057087551168449 edge_8_15_0_0 - 0.2787589455397225 edge_8_16_0_0
   + 0.0549124381879142 edge_8_17_0_0 - 0.2249964103276916 edge_8_18_0_0
   - 0.8655346076091371 edge_8_19_0_0 - 0.2953709207407883 edge_8_21_0_0
   + 0.6937126522075255 edge_8_22_0_0 - 1.423244265234332 edge_10_1_0_0
   - 1.088282755539155 edge_10_4_0_0 - 0.8784002280711843 edge_10_6_0_0
   - 0.3816706895450876 edge_10_8_0_0 - 0.0661859510467254 edge_10_11_0_0
   - 1.133405034758587 edge_11_1_0_0 - 0.9850640555711018 edge_11_3_0_0
   - 1.21327032399625 edge_11_4_0_0 + 0.1124927111407307 edge_11_6_0_0
   - 0.8397170015786359 edge_11_8_0_0 + 0.1724157500577616 edge_11_10_0_0
   + 1.216402214741087 edge_11_12_0_0 + 3.060654158679 edge_11_13_0_0
   + 1.335738352745383 edge_11_14_0_0 + 1.758760709907532 edge_11_15_0_0
   + 1.170209169372683 edge_11_16_0_0 + 1.668443911048713 edge_11_17_0_0
   - 0.2562349905131727 edge_11_18_0_0 - 0.3844665536752253 edge_11_19_0_0
   - 0.5474351073543446 edge_11_20_0_0 + 0.3099425598363056 edge_11_21_0_0
   + 1.028266116060797 edge_11_22_0_0 + 0.5077066393855429 edge_12_8_0_0
   + 0.00185059163670383 edge_12_10_0_0 + 1.200342188736 edge_12_13_0_0
   + 0.2209348696013415 edge_12_14_0_0 - 0.0941195866011924 edge_12_15_0_0
   + 0.050745003004498 edge_12_16_0_0 - 1.562133047102088 edge_12_19_0_0
   - 0.89985782363474 edge_13_1_0_0 + 0.021097305889524 edge_13_3_0_0
   - 0.11812269729348 edge_13_4_0_0 + 0.32179347523725 edge_13_5_0_0
   + 0.34309545095581 edge_13_6_0_0 + 0.085958314633892 edge_13_8_0_0
   + 0.20700680122941 edge_13_10_0_0 + 1.05288790815 edge_13_11_0_0
   + 3.4759306090212 edge_13_12_0_0 + 2.1640099070291 edge_13_14_0_0
   + 1.4086442547408 edge_13_15_0_0 + 1.65633 edge_13_16_0_0
   + 0.12988474544544 edge_13_17_0_0 - 0.43065401551055 edge_13_18_0_0
   - 0.7620212512018 edge_13_19_0_0 - 0.52312895895897 edge_13_20_0_0
   - 0.22399605601218 edge_13_21_0_0 + 0.33871181709552 edge_13_22_0_0
   - 1.243422695814299 edge_14_1_0_0 - 0.959184983936369 edge_14_8_0_0
   - 0.7053320497184746 edge_14_10_0_0 - 1.14228227513733 edge_14_11_0_0
   - 0.1390184040755669 edge_14_12_0_0 - 0.41241049655568 edge_14_13_0_0
   + 0.2866306910681732 edge_14_15_0_0 + 0.4270798227112951 edge_14_16_0_0
   + 0.0705145302792191 edge_14_17_0_0 - 1.170431373356347 edge_15_12_0_0
   - 0.75183581072322 edge_15_13_0_0 + 0.00383695165457004 edge_15_14_0_0
   + 0.82688548151754 edge_15_16_0_0 + 0.2662505648438639 edge_15_17_0_0
   - 0.3098876187688859 edge_15_18_0_0 + 0.0491822319842195 edge_15_19_0_0
   - 0.7483981840459211 edge_15_20_0_0 - 0.1812769101011279 edge_15_21_0_0
   - 2.0784669079564 edge_16_1_0_0 - 1.0046664701602 edge_16_3_0_0
   - 1.2792894626982 edge_16_4_0_0 - 0.8200902477026001 edge_16_6_0_0
   - 0.7628707837595999 edge_16_11_0_0 + 0.15653007384355 edge_16_12_0_0
   + 0.171831 edge_16_13_0_0 - 0.15809114883003 edge_16_14_0_0
   + 0.8630462459055479 edge_16_15_0_0 + 0.9714526696080557 edge_16_17_0_0
   + 0.2972088589051827 edge_16_18_0_0 - 0.2604250056473956 edge_16_19_0_0
   - 0.87714140802246 edge_16_20_0_0 + 0.4763357719979905 edge_16_21_0_0
   + 0.3224937871539809 edge_16_22_0_0 + 0.0546899879421568 edge_17_1_0_0
   - 0.0285548482368617 edge_17_3_0_0 - 0.2522554086059219 edge_17_4_0_0
   + 0.1597844525258439 edge_17_6_0_0 + 0.2379918293220334 edge_17_8_0_0
   + 0.011470356130525 edge_17_10_0_0 + 1.210147039781006 edge_17_11_0_0
   - 0.0861609868836676 edge_17_12_0_0 + 0.49409675338755 edge_17_13_0_0
   + 0.6371293247666104 edge_17_14_0_0 + 1.408687491534661 edge_17_15_0_0
   + 1.116971223400337 edge_17_16_0_0 + 1.303187988633553 edge_17_18_0_0
   + 0.787947753961595 edge_17_19_0_0 - 0.00197378105026587 edge_17_20_0_0
   + 1.525587835774152 edge_17_21_0_0 + 3.114126342706667 edge_17_22_0_0
   - 0.3790516808321479 edge_18_1_0_0 - 0.2712908797690733 edge_18_4_0_0
   - 0.0274300441366611 edge_18_8_0_0 + 0.0378523115113911 edge_18_15_0_0
   + 0.1823672874037229 edge_18_16_0_0 + 0.6331588632169264 edge_18_18_0_0
   + 0.3186544637361623 edge_18_19_0_0 + 0.2991437332942299 edge_18_21_0_0
   + 0.0899575452289793 edge_18_22_0_0 - 0.052108833532234 edge_19_17_0_0
   + 0.3975099598417006 edge_19_18_0_0 - 0.2463895344268173 edge_19_20_0_0
   + 0.165391015016077 edge_19_21_0_0 - 0.1493049948156593 edge_19_22_0_0
   + 0.376555838764712 edge_20_19_0_0 - 1.229847582516296 edge_21_1_0_0
   - 1.899849209381816 edge_21_3_0_0 - 0.9660677730085286 edge_21_4_0_0
   - 0.4333980239387391 edge_21_8_0_0 - 0.8116162785365799 edge_21_10_0_0
   - 1.408823751372483 edge_21_11_0_0 - 0.2249701068571662 edge_21_12_0_0
   - 0.95607626398353 edge_21_13_0_0 - 0.0956762940206276 edge_21_15_0_0
   - 0.3239094448287919 edge_21_16_0_0 + 0.4702377641079958 edge_21_17_0_0
   + 0.6086248873628988 edge_21_18_0_0 + 3.268032084668495 edge_21_19_0_0
   + 3.355971446007569 edge_21_20_0_0 + 0.9410464965582573 edge_21_22_0_0
   - 1.17868680783878 edge_22_19_0_0 - 0.9413504611878764 edge_22_21_0_0
Subject To
 one_parent_1: edge_0_1_0_0 + edge_2_1_0_0 + edge_3_1_0_0 + edge_4_1_0_0
   + edge_6_1_0_0 + edge_8_1_0_0 + edge_10_1_0_0 + edge_11_1_0_0
   + edge_13_1_0_0 + edge_14_1_0_0 + edge_16_1_0_0 + edge_17_1_0_0
   + edge_18_1_0_0 + edge_21_1_0_0 = 1
 consume_one_flow_unit_1: flow_0_1_0_0 - flow_1_3_0_0 - flow_1_4_0_0
   - flow_1_6_0_0 - flow_1_10_0_0 - flow_1_11_0_0 + flow_2_1_0_0
   + flow_3_1_0_0 + flow_4_1_0_0 + flow_6_1_0_0 + flow_8_1_0_0
   + flow_10_1_0_0 + flow_11_1_0_0 + flow_13_1_0_0 + flow_14_1_0_0
   + flow_16_1_0_0 + flow_17_1_0_0 + flow_18_1_0_0 + flow_21_1_0_0 = 1
 one_parent_2: edge_3_2_0_0 + edge_4_2_0_0 + edge_6_2_0_0 = 1
 consume_one_flow_unit_2: - flow_2_1_0_0 + flow_3_2_0_0 + flow_4_2_0_0
   + flow_6_2_0_0 = 1
 one_parent_3: edge_0_3_0_0 + edge_1_3_0_0 + edge_4_3_0_0 + edge_5_3_0_0
   + edge_6_3_0_0 + edge_8_3_0_0 + edge_11_3_0_0 + edge_13_3_0_0
   + edge_16_3_0_0 + edge_17_3_0_0 + edge_21_3_0_0 = 1
 consume_one_flow_unit_3: flow_0_3_0_0 + flow_1_3_0_0 - flow_3_1_0_0
   - flow_3_2_0_0 - flow_3_4_0_0 - flow_3_6_0_0 - flow_3_10_0_0
   - flow_3_11_0_0 - flow_3_14_0_0 - flow_3_15_0_0 - flow_3_16_0_0
   - flow_3_22_0_0 + flow_4_3_0_0 + flow_5_3_0_0 + flow_6_3_0_0
   + flow_8_3_0_0 + flow_11_3_0_0 + flow_13_3_0_0 + flow_16_3_0_0
   + flow_17_3_0_0 + flow_21_3_0_0 = 1
 one_parent_4: edge_0_4_0_0 + edge_1_4_0_0 + edge_3_4_0_0 + edge_5_4_0_0
   + edge_6_4_0_0 + edge_10_4_0_0 + edge_11_4_0_0 + edge_13_4_0_0
   + edge_16_4_0_0 + edge_17_4_0_0 + edge_18_4_0_0 + edge_21_4_0_0 = 1
 consume_one_flow_unit_4: flow_0_4_0_0 + flow_1_4_0_0 + flow_3_4_0_0
   - flow_4_1_0_0 - flow_4_2_0_0 - flow_4_3_0_0 - flow_4_5_0_0
   - flow_4_6_0_0 - flow_4_8_0_0 - flow_4_10_0_0 - flow_4_11_0_0
   - flow_4_12_0_0 - flow_4_13_0_0 - flow_4_14_0_0 - flow_4_15_0_0
   - flow_4_16_0_0 - flow_4_17_0_0 - flow_4_18_0_0 - flow_4_19_0_0
   - flow_4_20_0_0 - flow_4_21_0_0 - flow_4_22_0_0 + flow_5_4_0_0
   + flow_6_4_0_0 + flow_10_4_0_0 + flow_11_4_0_0 + flow_13_4_0_0
   + flow_16_4_0_0 + flow_17_4_0_0 + flow_18_4_0_0 + flow_21_4_0_0 = 1
 one_parent_5: edge_4_5_0_0 + edge_6_5_0_0 + edge_13_5_0_0 = 1
 consume_one_flow_unit_5: flow_4_5_0_0 - flow_5_3_0_0 - flow_5_4_0_0
   - flow_5_10_0_0 + flow_6_5_0_0 + flow_13_5_0_0 = 1
 one_parent_6: edge_0_6_0_0 + edge_1_6_0_0 + edge_3_6_0_0 + edge_4_6_0_0
   + edge_10_6_0_0 + edge_11_6_0_0 + edge_13_6_0_0 + edge_16_6_0_0
   + edge_17_6_0_0 = 1
 consume_one_flow_unit_6: flow_0_6_0_0 + flow_1_6_0_0 + flow_3_6_0_0
   + flow_4_6_0_0 - flow_6_1_0_0 - flow_6_2_0_0 - flow_6_3_0_0
   - flow_6_4_0_0 - flow_6_5_0_0 - flow_6_10_0_0 - flow_6_11_0_0
   - flow_6_12_0_0 - flow_6_13_0_0 - flow_6_14_0_0 - flow_6_15_0_0
   - flow_6_16_0_0 - flow_6_17_0_0 - flow_6_19_0_0 - flow_6_21_0_0
   + flow_10_6_0_0 + flow_11_6_0_0 + flow_13_6_0_0 + flow_16_6_0_0
   + flow_17_6_0_0 = 1
 one_parent_7: = 1
 consume_one_flow_unit_7: = 1
 one_parent_8: edge_4_8_0_0 + edge_10_8_0_0 + edge_11_8_0_0 + edge_12_8_0_0
   + edge_13_8_0_0 + edge_14_8_0_0 + edge_17_8_0_0 + edge_18_8_0_0
   + edge_21_8_0_0 = 1
 consume_one_flow_unit_8: flow_4_8_0_0 - flow_8_1_0_0 - flow_8_3_0_0
   - flow_8_10_0_0 - flow_8_11_0_0 - flow_8_12_0_0 - flow_8_13_0_0
   - flow_8_14_0_0 - flow_8_15_0_0 - flow_8_16_0_0 - flow_8_17_0_0
   - flow_8_18_0_0 - flow_8_19_0_0 - flow_8_21_0_0 - flow_8_22_0_0
   + flow_10_8_0_0 + flow_11_8_0_0 + flow_12_8_0_0 + flow_13_8_0_0
   + flow_14_8_0_0 + flow_17_8_0_0 + flow_18_8_0_0 + flow_21_8_0_0 = 1
 one_parent_9: = 1
 consume_one_flow_unit_9: = 1
 one_parent_10: edge_1_10_0_0 + edge_3_10_0_0 + edge_4_10_0_0
   + edge_5_10_0_0 + edge_6_10_0_0 + edge_8_10_0_0 + edge_11_10_0_0
   + edge_12_10_0_0 + edge_13_10_0_0 + edge_14_10_0_0 + edge_17_10_0_0
   + edge_21_10_0_0 = 1
 consume_one_flow_unit_10: flow_1_10_0_0 + flow_3_10_0_0 + flow_4_10_0_0
   + flow_5_10_0_0 + flow_6_10_0_0 + flow_8_10_0_0 - flow_10_1_0_0
   - flow_10_4_0_0 - flow_10_6_0_0 - flow_10_8_0_0 - flow_10_11_0_0
   + flow_11_10_0_0 + flow_12_10_0_0 + flow_13_10_0_0 + flow_14_10_0_0
   + flow_17_10_0_0 + flow_21_10_0_0 = 1
 one_parent_11: edge_0_11_0_0 + edge_1_11_0_0 + edge_3_11_0_0
   + edge_4_11_0_0 + edge_6_11_0_0 + edge_8_11_0_0 + edge_10_11_0_0
   + edge_13_11_0_0 + edge_14_11_0_0 + edge_16_11_0_0 + edge_17_11_0_0
   + edge_21_11_0_0 = 1
 consume_one_flow_unit_11: flow_0_11_0_0 + flow_1_11_0_0 + flow_3_11_0_0
   + flow_4_11_0_0 + flow_6_11_0_0 + flow_8_11_0_0 + flow_10_11_0_0
   - flow_11_1_0_0 - flow_11_3_0_0 - flow_11_4_0_0 - flow_11_6_0_0
   - flow_11_8_0_0 - flow_11_10_0_0 - flow_11_12_0_0 - flow_11_13_0_0
   - flow_11_14_0_0 - flow_11_15_0_0 - flow_11_16_0_0 - flow_11_17_0_0
   - flow_11_18_0_0 - flow_11_19_0_0 - flow_11_20_0_0 - flow_11_21_0_0
   - flow_11_22_0_0 + flow_13_11_0_0 + flow_14_11_0_0 + flow_16_11_0_0
   + flow_17_11_0_0 + flow_21_11_0_0 = 1
 one_parent_12: edge_4_12_0_0 + edge_6_12_0_0 + edge_8_12_0_0
   + edge_11_12_0_0 + edge_13_12_0_0 + edge_14_12_0_0 + edge_15_12_0_0
   + edge_16_12_0_0 + edge_17_12_0_0 + edge_21_12_0_0 = 1
 consume_one_flow_unit_12: flow_4_12_0_0 + flow_6_12_0_0 + flow_8_12_0_0
   + flow_11_12_0_0 - flow_12_8_0_0 - flow_12_10_0_0 - flow_12_13_0_0
   - flow_12_14_0_0 - flow_12_15_0_0 - flow_12_16_0_0 - flow_12_19_0_0
   + flow_13_12_0_0 + flow_14_12_0_0 + flow_15_12_0_0 + flow_16_12_0_0
   + flow_17_12_0_0 + flow_21_12_0_0 = 1
 one_parent_13: edge_0_13_0_0 + edge_4_13_0_0 + edge_6_13_0_0
   + edge_8_13_0_0 + edge_11_13_0_0 + edge_12_13_0_0 + edge_14_13_0_0
   + edge_15_13_0_0 + edge_16_13_0_0 + edge_17_13_0_0 + edge_21_13_0_0 = 1
 consume_one_flow_unit_13: flow_0_13_0_0 + flow_4_13_0_0 + flow_6_13_0_0
   + flow_8_13_0_0 + flow_11_13_0_0 + flow_12_13_0_0 - flow_13_1_0_0
   - flow_13_3_0_0 - flow_13_4_0_0 - flow_13_5_0_0 - flow_13_6_0_0
   - flow_13_8_0_0 - flow_13_10_0_0 - flow_13_11_0_0 - flow_13_12_0_0
   - flow_13_14_0_0 - flow_13_15_0_0 - flow_13_16_0_0 - flow_13_17_0_0
   - flow_13_18_0_0 - flow_13_19_0_0 - flow_13_20_0_0 - flow_13_21_0_0
   - flow_13_22_0_0 + flow_14_13_0_0 + flow_15_13_0_0 + flow_16_13_0_0
   + flow_17_13_0_0 + flow_21_13_0_0 = 1
 one_parent_14: edge_3_14_0_0 + edge_4_14_0_0 + edge_6_14_0_0
   + edge_8_14_0_0 + edge_11_14_0_0 + edge_12_14_0_0 + edge_13_14_0_0
   + edge_15_14_0_0 + edge_16_14_0_0 + edge_17_14_0_0 = 1
 consume_one_flow_unit_14: flow_3_14_0_0 + flow_4_14_0_0 + flow_6_14_0_0
   + flow_8_14_0_0 + flow_11_14_0_0 + flow_12_14_0_0 + flow_13_14_0_0
   - flow_14_1_0_0 - flow_14_8_0_0 - flow_14_10_0_0 - flow_14_11_0_0
   - flow_14_12_0_0 - flow_14_13_0_0 - flow_14_15_0_0 - flow_14_16_0_0
   - flow_14_17_0_0 + flow_15_14_0_0 + flow_16_14_0_0 + flow_17_14_0_0 = 1
 one_parent_15: edge_3_15_0_0 + edge_4_15_0_0 + edge_6_15_0_0
   + edge_8_15_0_0 + edge_11_15_0_0 + edge_12_15_0_0 + edge_13_15_0_0
   + edge_14_15_0_0 + edge_16_15_0_0 + edge_17_15_0_0 + edge_18_15_0_0
   + edge_21_15_0_0 = 1
 consume_one_flow_unit_15: flow_3_15_0_0 + flow_4_15_0_0 + flow_6_15_0_0
   + flow_8_15_0_0 + flow_11_15_0_0 + flow_12_15_0_0 + flow_13_15_0_0
   + flow_14_15_0_0 - flow_15_12_0_0 - flow_15_13_0_0 - flow_15_14_0_0
   - flow_15_16_0_0 - flow_15_17_0_0 - flow_15_18_0_0 - flow_15_19_0_0
   - flow_15_20_0_0 - flow_15_21_0_0 + flow_16_15_0_0 + flow_17_15_0_0
   + flow_18_15_0_0 + flow_21_15_0_0 = 1
 one_parent_16: edge_3_16_0_0 + edge_4_16_0_0 + edge_6_16_0_0
   + edge_8_16_0_0 + edge_11_16_0_0 + edge_12_16_0_0 + edge_13_16_0_0
   + edge_14_16_0_0 + edge_15_16_0_0 + edge_17_16_0_0 + edge_18_16_0_0
   + edge_21_16_0_0 = 1
 consume_one_flow_unit_16: flow_3_16_0_0 + flow_4_16_0_0 + flow_6_16_0_0
   + flow_8_16_0_0 + flow_11_16_0_0 + flow_12_16_0_0 + flow_13_16_0_0
   + flow_14_16_0_0 + flow_15_16_0_0 - flow_16_1_0_0 - flow_16_3_0_0
   - flow_16_4_0_0 - flow_16_6_0_0 - flow_16_11_0_0 - flow_16_12_0_0
   - flow_16_13_0_0 - flow_16_14_0_0 - flow_16_15_0_0 - flow_16_17_0_0
   - flow_16_18_0_0 - flow_16_19_0_0 - flow_16_20_0_0 - flow_16_21_0_0
   - flow_16_22_0_0 + flow_17_16_0_0 + flow_18_16_0_0 + flow_21_16_0_0 = 1
 one_parent_17: edge_0_17_0_0 + edge_4_17_0_0 + edge_6_17_0_0
   + edge_8_17_0_0 + edge_11_17_0_0 + edge_13_17_0_0 + edge_14_17_0_0
   + edge_15_17_0_0 + edge_16_17_0_0 + edge_19_17_0_0 + edge_21_17_0_0 = 1
 consume_one_flow_unit_17: flow_0_17_0_0 + flow_4_17_0_0 + flow_6_17_0_0
   + flow_8_17_0_0 + flow_11_17_0_0 + flow_13_17_0_0 + flow_14_17_0_0
   + flow_15_17_0_0 + flow_16_17_0_0 - flow_17_1_0_0 - flow_17_3_0_0
   - flow_17_4_0_0 - flow_17_6_0_0 - flow_17_8_0_0 - flow_17_10_0_0
   - flow_17_11_0_0 - flow_17_12_0_0 - flow_17_13_0_0 - flow_17_14_0_0
   - flow_17_15_0_0 - flow_17_16_0_0 - flow_17_18_0_0 - flow_17_19_0_0
   - flow_17_20_0_0 - flow_17_21_0_0 - flow_17_22_0_0 + flow_19_17_0_0
   + flow_21_17_0_0 = 1
 one_parent_18: edge_4_18_0_0 + edge_8_18_0_0 + edge_11_18_0_0
   + edge_13_18_0_0 + edge_15_18_0_0 + edge_16_18_0_0 + edge_17_18_0_0
   + edge_18_18_0_0 + edge_19_18_0_0 + edge_21_18_0_0 = 1
 consume_one_flow_unit_18: flow_4_18_0_0 + flow_8_18_0_0 + flow_11_18_0_0
   + flow_13_18_0_0 + flow_15_18_0_0 + flow_16_18_0_0 + flow_17_18_0_0
   - flow_18_1_0_0 - flow_18_4_0_0 - flow_18_8_0_0 - flow_18_15_0_0
   - flow_18_16_0_0 - flow_18_19_0_0 - flow_18_21_0_0 - flow_18_22_0_0
   + flow_19_18_0_0 + flow_21_18_0_0 = 1
 one_parent_19: edge_4_19_0_0 + edge_6_19_0_0 + edge_8_19_0_0
   + edge_11_19_0_0 + edge_12_19_0_0 + edge_13_19_0_0 + edge_15_19_0_0
   + edge_16_19_0_0 + edge_17_19_0_0 + edge_18_19_0_0 + edge_20_19_0_0
   + edge_21_19_0_0 + edge_22_19_0_0 = 1
 consume_one_flow_unit_19: flow_4_19_0_0 + flow_6_19_0_0 + flow_8_19_0_0
   + flow_11_19_0_0 + flow_12_19_0_0 + flow_13_19_0_0 + flow_15_19_0_0
   + flow_16_19_0_0 + flow_17_19_0_0 + flow_18_19_0_0 - flow_19_17_0_0
   - flow_19_18_0_0 - flow_19_20_0_0 - flow_19_21_0_0 - flow_19_22_0_0
   + flow_20_19_0_0 + flow_21_19_0_0 + flow_22_19_0_0 = 1
 one_parent_20: edge_4_20_0_0 + edge_11_20_0_0 + edge_13_20_0_0
   + edge_15_20_0_0 + edge_16_20_0_0 + edge_17_20_0_0 + edge_19_20_0_0
   + edge_21_20_0_0 = 1
 consume_one_flow_unit_20: flow_4_20_0_0 + flow_11_20_0_0 + flow_13_20_0_0
   + flow_15_20_0_0 + flow_16_20_0_0 + flow_17_20_0_0 + flow_19_20_0_0
   - flow_20_19_0_0 + flow_21_20_0_0 = 1
 one_parent_21: edge_0_21_0_0 + edge_4_21_0_0 + edge_6_21_0_0
   + edge_8_21_0_0 + edge_11_21_0_0 + edge_13_21_0_0 + edge_15_21_0_0
   + edge_16_21_0_0 + edge_17_21_0_0 + edge_18_21_0_0 + edge_19_21_0_0
   + edge_22_21_0_0 = 1
 consume_one_flow_unit_21: flow_0_21_0_0 + flow_4_21_0_0 + flow_6_21_0_0
   + flow_8_21_0_0 + flow_11_21_0_0 + flow_13_21_0_0 + flow_15_21_0_0
   + flow_16_21_0_0 + flow_17_21_0_0 + flow_18_21_0_0 + flow_19_21_0_0
   - flow_21_1_0_0 - flow_21_3_0_0 - flow_21_4_0_0 - flow_21_8_0_0
   - flow_21_10_0_0 - flow_21_11_0_0 - flow_21_12_0_0 - flow_21_13_0_0
   - flow_21_15_0_0 - flow_21_16_0_0 - flow_21_17_0_0 - flow_21_18_0_0
   - flow_21_19_0_0 - flow_21_20_0_0 - flow_21_22_0_0 + flow_22_21_0_0 = 1
 one_parent_22: edge_3_22_0_0 + edge_4_22_0_0 + edge_8_22_0_0
   + edge_11_22_0_0 + edge_13_22_0_0 + edge_16_22_0_0 + edge_17_22_0_0
   + edge_18_22_0_0 + edge_19_22_0_0 + edge_21_22_0_0 = 1
 consume_one_flow_unit_22: flow_3_22_0_0 + flow_4_22_0_0 + flow_8_22_0_0
   + flow_11_22_0_0 + flow_13_22_0_0 + flow_16_22_0_0 + flow_17_22_0_0
   + flow_18_22_0_0 + flow_19_22_0_0 + flow_21_22_0_0 - flow_22_19_0_0
   - flow_22_21_0_0 = 1
 root_flow: flow_0_1_0_0 + flow_0_3_0_0 + flow_0_4_0_0 + flow_0_6_0_0
   + flow_0_11_0_0 + flow_0_13_0_0 + flow_0_17_0_0 + flow_0_21_0_0 = 22
 inactive_no_flow_0_1_0_0: flow_0_1_0_0 - 1000 edge_0_1_0_0 <= 0
 inactive_no_flow_0_3_0_0: flow_0_3_0_0 - 1000 edge_0_3_0_0 <= 0
 inactive_no_flow_0_4_0_0: flow_0_4_0_0 - 1000 edge_0_4_0_0 <= 0
 inactive_no_flow_0_6_0_0: flow_0_6_0_0 - 1000 edge_0_6_0_0 <= 0
 inactive_no_flow_0_11_0_0: flow_0_11_0_0 - 1000 edge_0_11_0_0 <= 0
 inactive_no_flow_0_13_0_0: flow_0_13_0_0 - 1000 edge_0_13_0_0 <= 0
 inactive_no_flow_0_17_0_0: flow_0_17_0_0 - 1000 edge_0_17_0_0 <= 0
 inactive_no_flow_0_21_0_0: flow_0_21_0_0 - 1000 edge_0_21_0_0 <= 0
 inactive_no_flow_1_3_0_0: flow_1_3_0_0 - 1000 edge_1_3_0_0 <= 0
 inactive_no_flow_1_4_0_0: flow_1_4_0_0 - 1000 edge_1_4_0_0 <= 0
 inactive_no_flow_1_6_0_0: flow_1_6_0_0 - 1000 edge_1_6_0_0 <= 0
 inactive_no_flow_1_10_0_0: flow_1_10_0_0 - 1000 edge_1_10_0_0 <= 0
 inactive_no_flow_1_11_0_0: flow_1_11_0_0 - 1000 edge_1_11_0_0 <= 0
 inactive_no_flow_2_1_0_0: flow_2_1_0_0 - 1000 edge_2_1_0_0 <= 0
 inactive_no_flow_3_1_0_0: flow_3_1_0_0 - 1000 edge_3_1_0_0 <= 0
 inactive_no_flow_3_2_0_0: flow_3_2_0_0 - 1000 edge_3_2_0_0 <= 0
 inactive_no_flow_3_4_0_0: flow_3_4_0_0 - 1000 edge_3_4_0_0 <= 0
 inactive_no_flow_3_6_0_0: flow_3_6_0_0 - 1000 edge_3_6_0_0 <= 0
 inactive_no_flow_3_10_0_0: flow_3_10_0_0 - 1000 edge_3_10_0_0 <= 0
 inactive_no_flow_3_11_0_0: flow_3_11_0_0 - 1000 edge_3_11_0_0 <= 0
 inactive_no_flow_3_14_0_0: flow_3_14_0_0 - 1000 edge_3_14_0_0 <= 0
 inactive_no_flow_3_15_0_0: flow_3_15_0_0 - 1000 edge_3_15_0_0 <= 0
 inactive_no_flow_3_16_0_0: flow_3_16_0_0 - 1000 edge_3_16_0_0 <= 0
 inactive_no_flow_3_22_0_0: flow_3_22_0_0 - 1000 edge_3_22_0_0 <= 0
 inactive_no_flow_4_1_0_0: flow_4_1_0_0 - 1000 edge_4_1_0_0 <= 0
 inactive_no_flow_4_2_0_0: flow_4_2_0_0 - 1000 edge_4_2_0_0 <= 0
 inactive_no_flow_4_3_0_0: flow_4_3_0_0 - 1000 edge_4_3_0_0 <= 0
 inactive_no_flow_4_5_0_0: flow_4_5_0_0 - 1000 edge_4_5_0_0 <= 0
 inactive_no_flow_4_6_0_0: flow_4_6_0_0 - 1000 edge_4_6_0_0 <= 0
 inactive_no_flow_4_8_0_0: flow_4_8_0_0 - 1000 edge_4_8_0_0 <= 0
 inactive_no_flow_4_10_0_0: flow_4_10_0_0 - 1000 edge_4_10_0_0 <= 0
 inactive_no_flow_4_11_0_0: flow_4_11_0_0 - 1000 edge_4_11_0_0 <= 0
 inactive_no_flow_4_12_0_0: flow_4_12_0_0 - 1000 edge_4_12_0_0 <= 0
 inactive_no_flow_4_13_0_0: flow_4_13_0_0 - 1000 edge_4_13_0_0 <= 0
 inactive_no_flow_4_14_0_0: flow_4_14_0_0 - 1000 edge_4_14_0_0 <= 0
 inactive_no_flow_4_15_0_0: flow_4_15_0_0 - 1000 edge_4_15_0_0 <= 0
 inactive_no_flow_4_16_0_0: flow_4_16_0_0 - 1000 edge_4_16_0_0 <= 0
 inactive_no_flow_4_17_0_0: flow_4_17_0_0 - 1000 edge_4_17_0_0 <= 0
 inactive_no_flow_4_18_0_0: flow_4_18_0_0 - 1000 edge_4_18_0_0 <= 0
 inactive_no_flow_4_19_0_0: flow_4_19_0_0 - 1000 edge_4_19_0_0 <= 0
 inactive_no_flow_4_20_0_0: flow_4_20_0_0 - 1000 edge_4_20_0_0 <= 0
 inactive_no_flow_4_21_0_0: flow_4_21_0_0 - 1000 edge_4_21_0_0 <= 0
 inactive_no_flow_4_22_0_0: flow_4_22_0_0 - 1000 edge_4_22_0_0 <= 0
 inactive_no_flow_5_3_0_0: flow_5_3_0_0 - 1000 edge_5_3_0_0 <= 0
 inactive_no_flow_5_4_0_0: flow_5_4_0_0 - 1000 edge_5_4_0_0 <= 0
 inactive_no_flow_5_10_0_0: flow_5_10_0_0 - 1000 edge_5_10_0_0 <= 0
 inactive_no_flow_6_1_0_0: flow_6_1_0_0 - 1000 edge_6_1_0_0 <= 0
 inactive_no_flow_6_2_0_0: flow_6_2_0_0 - 1000 edge_6_2_0_0 <= 0
 inactive_no_flow_6_3_0_0: flow_6_3_0_0 - 1000 edge_6_3_0_0 <= 0
 inactive_no_flow_6_4_0_0: flow_6_4_0_0 - 1000 edge_6_4_0_0 <= 0
 inactive_no_flow_6_5_0_0: flow_6_5_0_0 - 1000 edge_6_5_0_0 <= 0
 inactive_no_flow_6_10_0_0: flow_6_10_0_0 - 1000 edge_6_10_0_0 <= 0
 inactive_no_flow_6_11_0_0: flow_6_11_0_0 - 1000 edge_6_11_0_0 <= 0
 inactive_no_flow_6_12_0_0: flow_6_12_0_0 - 1000 edge_6_12_0_0 <= 0
 inactive_no_flow_6_13_0_0: flow_6_13_0_0 - 1000 edge_6_13_0_0 <= 0
 inactive_no_flow_6_14_0_0: flow_6_14_0_0 - 1000 edge_6_14_0_0 <= 0
 inactive_no_flow_6_15_0_0: flow_6_15_0_0 - 1000 edge_6_15_0_0 <= 0
 inactive_no_flow_6_16_0_0: flow_6_16_0_0 - 1000 edge_6_16_0_0 <= 0
 inactive_no_flow_6_17_0_0: flow_6_17_0_0 - 1000 edge_6_17_0_0 <= 0
 inactive_no_flow_6_19_0_0: flow_6_19_0_0 - 1000 edge_6_19_0_0 <= 0
 inactive_no_flow_6_21_0_0: flow_6_21_0_0 - 1000 edge_6_21_0_0 <= 0
 inactive_no_flow_8_1_0_0: flow_8_1_0_0 - 1000 edge_8_1_0_0 <= 0
 inactive_no_flow_8_3_0_0: flow_8_3_0_0 - 1000 edge_8_3_0_0 <= 0
 inactive_no_flow_8_10_0_0: flow_8_10_0_0 - 1000 edge_8_10_0_0 <= 0
 inactive_no_flow_8_11_0_0: flow_8_11_0_0 - 1000 edge_8_11_0_0 <= 0
 inactive_no_flow_8_12_0_0: flow_8_12_0_0 - 1000 edge_8_12_0_0 <= 0
 inactive_no_flow_8_13_0_0: flow_8_13_0_0 - 1000 edge_8_13_0_0 <= 0
 inactive_no_flow_8_14_0_0: flow_8_14_0_0 - 1000 edge_8_14_0_0 <= 0
 inactive_no_flow_8_15_0_0: flow_8_15_0_0 - 1000 edge_8_15_0_0 <= 0
 inactive_no_flow_8_16_0_0: flow_8_16_0_0 - 1000 edge_8_16_0_0 <= 0
 inactive_no_flow_8_17_0_0: flow_8_17_0_0 - 1000 edge_8_17_0_0 <= 0
 inactive_no_flow_8_18_0_0: flow_8_18_0_0 - 1000 edge_8_18_0_0 <= 0
 inactive_no_flow_8_19_0_0: flow_8_19_0_0 - 1000 edge_8_19_0_0 <= 0
 inactive_no_flow_8_21_0_0: flow_8_21_0_0 - 1000 edge_8_21_0_0 <= 0
 inactive_no_flow_8_22_0_0: flow_8_22_0_0 - 1000 edge_8_22_0_0 <= 0
 inactive_no_flow_10_1_0_0: flow_10_1_0_0 - 1000 edge_10_1_0_0 <= 0
 inactive_no_flow_10_4_0_0: flow_10_4_0_0 - 1000 edge_10_4_0_0 <= 0
 inactive_no_flow_10_6_0_0: flow_10_6_0_0 - 1000 edge_10_6_0_0 <= 0
 inactive_no_flow_10_8_0_0: flow_10_8_0_0 - 1000 edge_10_8_0_0 <= 0
 inactive_no_flow_10_11_0_0: flow_10_11_0_0 - 1000 edge_10_11_0_0 <= 0
 inactive_no_flow_11_1_0_0: flow_11_1_0_0 - 1000 edge_11_1_0_0 <= 0
 inactive_no_flow_11_3_0_0: flow_11_3_0_0 - 1000 edge_11_3_0_0 <= 0
 inactive_no_flow_11_4_0_0: flow_11_4_0_0 - 1000 edge_11_4_0_0 <= 0
 inactive_no_flow_11_6_0_0: flow_11_6_0_0 - 1000 edge_11_6_0_0 <= 0
 inactive_no_flow_11_8_0_0: flow_11_8_0_0 - 1000 edge_11_8_0_0 <= 0
 inactive_no_flow_11_10_0_0: flow_11_10_0_0 - 1000 edge_11_10_0_0 <= 0
 inactive_no_flow_11_12_0_0: flow_11_12_0_0 - 1000 edge_11_12_0_0 <= 0
 inactive_no_flow_11_13_0_0: flow_11_13_0_0 - 1000 edge_11_13_0_0 <= 0
 inactive_no_flow_11_14_0_0: flow_11_14_0_0 - 1000 edge_11_14_0_0 <= 0
 inactive_no_flow_11_15_0_0: flow_11_15_0_0 - 1000 edge_11_15_0_0 <= 0
 inactive_no_flow_11_16_0_0: flow_11_16_0_0 - 1000 edge_11_16_0_0 <= 0
 inactive_no_flow_11_17_0_0: flow_11_17_0_0 - 1000 edge_11_17_0_0 <= 0
 inactive_no_flow_11_18_0_0: flow_11_18_0_0 - 1000 edge_11_18_0_0 <= 0
 inactive_no_flow_11_19_0_0: flow_11_19_0_0 - 1000 edge_11_19_0_0 <= 0
 inactive_no_flow_11_20_0_0: flow_11_20_0_0 - 1000 edge_11_20_0_0 <= 0
 inactive_no_flow_11_21_0_0: flow_11_21_0_0 - 1000 edge_11_21_0_0 <= 0
 inactive_no_flow_11_22_0_0: flow_11_22_0_0 - 1000 edge_11_22_0_0 <= 0
 inactive_no_flow_12_8_0_0: flow_12_8_0_0 - 1000 edge_12_8_0_0 <= 0
 inactive_no_flow_12_10_0_0: flow_12_10_0_0 - 1000 edge_12_10_0_0 <= 0
 inactive_no_flow_12_13_0_0: flow_12_13_0_0 - 1000 edge_12_13_0_0 <= 0
 inactive_no_flow_12_14_0_0: flow_12_14_0_0 - 1000 edge_12_14_0_0 <= 0
 inactive_no_flow_12_15_0_0: flow_12_15_0_0 - 1000 edge_12_15_0_0 <= 0
 inactive_no_flow_12_16_0_0: flow_12_16_0_0 - 1000 edge_12_16_0_0 <= 0
 inactive_no_flow_12_19_0_0: flow_12_19_0_0 - 1000 edge_12_19_0_0 <= 0
 inactive_no_flow_13_1_0_0: flow_13_1_0_0 - 1000 edge_13_1_0_0 <= 0
 inactive_no_flow_13_3_0_0: flow_13_3_0_0 - 1000 edge_13_3_0_0 <= 0
 inactive_no_flow_13_4_0_0: flow_13_4_0_0 - 1000 edge_13_4_0_0 <= 0
 inactive_no_flow_13_5_0_0: flow_13_5_0_0 - 1000 edge_13_5_0_0 <= 0
 inactive_no_flow_13_6_0_0: flow_13_6_0_0 - 1000 edge_13_6_0_0 <= 0
 inactive_no_flow_13_8_0_0: flow_13_8_0_0 - 1000 edge_13_8_0_0 <= 0
 inactive_no_flow_13_10_0_0: flow_13_10_0_0 - 1000 edge_13_10_0_0 <= 0
 inactive_no_flow_13_11_0_0: flow_13_11_0_0 - 1000 edge_13_11_0_0 <= 0
 inactive_no_flow_13_12_0_0: flow_13_12_0_0 - 1000 edge_13_12_0_0 <= 0
 inactive_no_flow_13_14_0_0: flow_13_14_0_0 - 1000 edge_13_14_0_0 <= 0
 inactive_no_flow_13_15_0_0: flow_13_15_0_0 - 1000 edge_13_15_0_0 <= 0
 inactive_no_flow_13_16_0_0: flow_13_16_0_0 - 1000 edge_13_16_0_0 <= 0
 inactive_no_flow_13_17_0_0: flow_13_17_0_0 - 1000 edge_13_17_0_0 <= 0
 inactive_no_flow_13_18_0_0: flow_13_18_0_0 - 1000 edge_13_18_0_0 <= 0
 inactive_no_flow_13_19_0_0: flow_13_19_0_0 - 1000 edge_13_19_0_0 <= 0
 inactive_no_flow_13_20_0_0: flow_13_20_0_0 - 1000 edge_13_20_0_0 <= 0
 inactive_no_flow_13_21_0_0: flow_13_21_0_0 - 1000 edge_13_21_0_0 <= 0
 inactive_no_flow_13_22_0_0: flow_13_22_0_0 - 1000 edge_13_22_0_0 <= 0
 inactive_no_flow_14_1_0_0: flow_14_1_0_0 - 1000 edge_14_1_0_0 <= 0
 inactive_no_flow_14_8_0_0: flow_14_8_0_0 - 1000 edge_14_8_0_0 <= 0
 inactive_no_flow_14_10_0_0: flow_14_10_0_0 - 1000 edge_14_10_0_0 <= 0
 inactive_no_flow_14_11_0_0: flow_14_11_0_0 - 1000 edge_14_11_0_0 <= 0
 inactive_no_flow_14_12_0_0: flow_14_12_0_0 - 1000 edge_14_12_0_0 <= 0
 inactive_no_flow_14_13_0_0: flow_14_13_0_0 - 1000 edge_14_13_0_0 <= 0
 inactive_no_flow_14_15_0_0: flow_14_15_0_0 - 1000 edge_14_15_0_0 <= 0
 inactive_no_flow_14_16_0_0: flow_14_16_0_0 - 1000 edge_14_16_0_0 <= 0
 inactive_no_flow_14_17_0_0: flow_14_17_0_0 - 1000 edge_14_17_0_0 <= 0
 inactive_no_flow_15_12_0_0: flow_15_12_0_0 - 1000 edge_15_12_0_0 <= 0
 inactive_no_flow_15_13_0_0: flow_15_13_0_0 - 1000 edge_15_13_0_0 <= 0
 inactive_no_flow_15_14_0_0: flow_15_14_0_0 - 1000 edge_15_14_0_0 <= 0
 inactive_no_flow_15_16_0_0: flow_15_16_0_0 - 1000 edge_15_16_0_0 <= 0
 inactive_no_flow_15_17_0_0: flow_15_17_0_0 - 1000 edge_15_17_0_0 <= 0
 inactive_no_flow_15_18_0_0: flow_15_18_0_0 - 1000 edge_15_18_0_0 <= 0
 inactive_no_flow_15_19_0_0: flow_15_19_0_0 - 1000 edge_15_19_0_0 <= 0
 inactive_no_flow_15_20_0_0: flow_15_20_0_0 - 1000 edge_15_20_0_0 <= 0
 inactive_no_flow_15_21_0_0: flow_15_21_0_0 - 1000 edge_15_21_0_0 <= 0
 inactive_no_flow_16_1_0_0: flow_16_1_0_0 - 1000 edge_16_1_0_0 <= 0
 inactive_no_flow_16_3_0_0: flow_16_3_0_0 - 1000 edge_16_3_0_0 <= 0
 inactive_no_flow_16_4_0_0: flow_16_4_0_0 - 1000 edge_16_4_0_0 <= 0
 inactive_no_flow_16_6_0_0: flow_16_6_0_0 - 1000 edge_16_6_0_0 <= 0
 inactive_no_flow_16_11_0_0: flow_16_11_0_0 - 1000 edge_16_11_0_0 <= 0
 inactive_no_flow_16_12_0_0: flow_16_12_0_0 - 1000 edge_16_12_0_0 <= 0
 inactive_no_flow_16_13_0_0: flow_16_13_0_0 - 1000 edge_16_13_0_0 <= 0
 inactive_no_flow_16_14_0_0: flow_16_14_0_0 - 1000 edge_16_14_0_0 <= 0
 inactive_no_flow_16_15_0_0: flow_16_15_0_0 - 1000 edge_16_15_0_0 <= 0
 inactive_no_flow_16_17_0_0: flow_16_17_0_0 - 1000 edge_16_17_0_0 <= 0
 inactive_no_flow_16_18_0_0: flow_16_18_0_0 - 1000 edge_16_18_0_0 <= 0
 inactive_no_flow_16_19_0_0: flow_16_19_0_0 - 1000 edge_16_19_0_0 <= 0
 inactive_no_flow_16_20_0_0: flow_16_20_0_0 - 1000 edge_16_20_0_0 <= 0
 inactive_no_flow_16_21_0_0: flow_16_21_0_0 - 1000 edge_16_21_0_0 <= 0
 inactive_no_flow_16_22_0_0: flow_16_22_0_0 - 1000 edge_16_22_0_0 <= 0
 inactive_no_flow_17_1_0_0: flow_17_1_0_0 - 1000 edge_17_1_0_0 <= 0
 inactive_no_flow_17_3_0_0: flow_17_3_0_0 - 1000 edge_17_3_0_0 <= 0
 inactive_no_flow_17_4_0_0: flow_17_4_0_0 - 1000 edge_17_4_0_0 <= 0
 inactive_no_flow_17_6_0_0: flow_17_6_0_0 - 1000 edge_17_6_0_0 <= 0
 inactive_no_flow_17_8_0_0: flow_17_8_0_0 - 1000 edge_17_8_0_0 <= 0
 inactive_no_flow_17_10_0_0: flow_17_10_0_0 - 1000 edge_17_10_0_0 <= 0
 inactive_no_flow_17_11_0_0: flow_17_11_0_0 - 1000 edge_17_11_0_0 <= 0
 inactive_no_flow_17_12_0_0: flow_17_12_0_0 - 1000 edge_17_12_0_0 <= 0
 inactive_no_flow_17_13_0_0: flow_17_13_0_0 - 1000 edge_17_13_0_0 <= 0
 inactive_no_flow_17_14_0_0: flow_17_14_0_0 - 1000 edge_17_14_0_0 <= 0
 inactive_no_flow_17_15_0_0: flow_17_15_0_0 - 1000 edge_17_15_0_0 <= 0
 inactive_no_flow_17_16_0_0: flow_17_16_0_0 - 1000 edge_17_16_0_0 <= 0
 inactive_no_flow_17_18_0_0: flow_17_18_0_0 - 1000 edge_17_18_0_0 <= 0
 inactive_no_flow_17_19_0_0: flow_17_19_0_0 - 1000 edge_17_19_0_0 <= 0
 inactive_no_flow_17_20_0_0: flow_17_20_0_0 - 1000 edge_17_20_0_0 <= 0
 inactive_no_flow_17_21_0_0: flow_17_21_0_0 - 1000 edge_17_21_0_0 <= 0
 inactive_no_flow_17_22_0_0: flow_17_22_0_0 - 1000 edge_17_22_0_0 <= 0
 inactive_no_flow_18_1_0_0: flow_18_1_0_0 - 1000 edge_18_1_0_0 <= 0
 inactive_no_flow_18_4_0_0: flow_18_4_0_0 - 1000 edge_18_4_0_0 <= 0
 inactive_no_flow_18_8_0_0: flow_18_8_0_0 - 1000 edge_18_8_0_0 <= 0
 inactive_no_flow_18_15_0_0: flow_18_15_0_0 - 1000 edge_18_15_0_0 <= 0
 inactive_no_flow_18_16_0_0: flow_18_16_0_0 - 1000 edge_18_16_0_0 <= 0
 inactive_no_flow_18_18_0_0: flow_18_18_0_0 - 1000 edge_18_18_0_0 <= 0
 inactive_no_flow_18_19_0_0: flow_18_19_0_0 - 1000 edge_18_19_0_0 <= 0
 inactive_no_flow_18_21_0_0: flow_18_21_0_0 - 1000 edge_18_21_0_0 <= 0
 inactive_no_flow_18_22_0_0: flow_18_22_0_0 - 1000 edge_18_22_0_0 <= 0
 inactive_no_flow_19_17_0_0: flow_19_17_0_0 - 1000 edge_19_17_0_0 <= 0
 inactive_no_flow_19_18_0_0: flow_19_18_0_0 - 1000 edge_19_18_0_0 <= 0
 inactive_no_flow_19_20_0_0: flow_19_20_0_0 - 1000 edge_19_20_0_0 <= 0
 inactive_no_flow_19_21_0_0: flow_19_21_0_0 - 1000 edge_19_21_0_0 <= 0
 inactive_no_flow_19_22_0_0: flow_19_22_0_0 - 1000 edge_19_22_0_0 <= 0
 inactive_no_flow_20_19_0_0: flow_20_19_0_0 - 1000 edge_20_19_0_0 <= 0
 inactive_no_flow_21_1_0_0: flow_21_1_0_0 - 1000 edge_21_1_0_0 <= 0
 inactive_no_flow_21_3_0_0: flow_21_3_0_0 - 1000 edge_21_3_0_0 <= 0
 inactive_no_flow_21_4_0_0: flow_21_4_0_0 - 1000 edge_21_4_0_0 <= 0
 inactive_no_flow_21_8_0_0: flow_21_8_0_0 - 1000 edge_21_8_0_0 <= 0
 inactive_no_flow_21_10_0_0: flow_21_10_0_0 - 1000 edge_21_10_0_0 <= 0
 inactive_no_flow_21_11_0_0: flow_21_11_0_0 - 1000 edge_21_11_0_0 <= 0
 inactive_no_flow_21_12_0_0: flow_21_12_0_0 - 1000 edge_21_12_0_0 <= 0
 inactive_no_flow_21_13_0_0: flow_21_13_0_0 - 1000 edge_21_13_0_0 <= 0
 inactive_no_flow_21_15_0_0: flow_21_15_0_0 - 1000 edge_21_15_0_0 <= 0
 inactive_no_flow_21_16_0_0: flow_21_16_0_0 - 1000 edge_21_16_0_0 <= 0
 inactive_no_flow_21_17_0_0: flow_21_17_0_0 - 1000 edge_21_17_0_0 <= 0
 inactive_no_flow_21_18_0_0: flow_21_18_0_0 - 1000 edge_21_18_0_0 <= 0
 inactive_no_flow_21_19_0_0: flow_21_19_0_0 - 1000 edge_21_19_0_0 <= 0
 inactive_no_flow_21_20_0_0: flow_21_20_0_0 - 1000 edge_21_20_0_0 <= 0
 inactive_no_flow_21_22_0_0: flow_21_22_0_0 - 1000 edge_21_22_0_0 <= 0
 inactive_no_flow_22_19_0_0: flow_22_19_0_0 - 1000 edge_22_19_0_0 <= 0
 inactive_no_flow_22_21_0_0: flow_22_21_0_0 - 1000 edge_22_21_0_0 <= 0
Bounds
Binaries
 edge_0_1_0_0 edge_0_3_0_0 edge_0_4_0_0 edge_0_6_0_0 edge_0_11_0_0
 edge_0_13_0_0 edge_0_17_0_0 edge_0_21_0_0 edge_1_3_0_0 edge_1_4_0_0
 edge_1_6_0_0 edge_1_10_0_0 edge_1_11_0_0 edge_2_1_0_0 edge_3_1_0_0
 edge_3_2_0_0 edge_3_4_0_0 edge_3_6_0_0 edge_3_10_0_0 edge_3_11_0_0
 edge_3_14_0_0 edge_3_15_0_0 edge_3_16_0_0 edge_3_22_0_0 edge_4_1_0_0
 edge_4_2_0_0 edge_4_3_0_0 edge_4_5_0_0 edge_4_6_0_0 edge_4_8_0_0
 edge_4_10_0_0 edge_4_11_0_0 edge_4_12_0_0 edge_4_13_0_0 edge_4_14_0_0
 edge_4_15_0_0 edge_4_16_0_0 edge_4_17_0_0 edge_4_18_0_0 edge_4_19_0_0
 edge_4_20_0_0 edge_4_21_0_0 edge_4_22_0_0 edge_5_3_0_0 edge_5_4_0_0
 edge_5_10_0_0 edge_6_1_0_0 edge_6_2_0_0 edge_6_3_0_0 edge_6_4_0_0
 edge_6_5_0_0 edge_6_10_0_0 edge_6_11_0_0 edge_6_12_0_0 edge_6_13_0_0
 edge_6_14_0_0 edge_6_15_0_0 edge_6_16_0_0 edge_6_17_0_0 edge_6_19_0_0
 edge_6_21_0_0 edge_8_1_0_0 edge_8_3_0_0 edge_8_10_0_0 edge_8_11_0_0
 edge_8_12_0_0 edge_8_13_0_0 edge_8_14_0_0 edge_8_15_0_0 edge_8_16_0_0
 edge_8_17_0_0 edge_8_18_0_0 edge_8_19_0_0 edge_8_21_0_0 edge_8_22_0_0
 edge_10_1_0_0 edge_10_4_0_0 edge_10_6_0_0 edge_10_8_0_0 edge_10_11_0_0
 edge_11_1_0_0 edge_11_3_0_0 edge_11_4_0_0 edge_11_6_0_0 edge_11_8_0_0
 edge_11_10_0_0 edge_11_12_0_0 edge_11_13_0_0 edge_11_14_0_0 edge_11_15_0_0
 edge_11_16_0_0 edge_11_17_0_0 edge_11_18_0_0 edge_11_19_0_0 edge_11_20_0_0
 edge_11_21_0_0 edge_11_22_0_0 edge_12_8_0_0 edge_12_10_0_0 edge_12_13_0_0
 edge_12_14_0_0 edge_12_15_0_0 edge_12_16_0_0 edge_12_19_0_0 edge_13_1_0_0
 edge_13_3_0_0 edge_13_4_0_0 edge_13_5_0_0 edge_13_6_0_0 edge_13_8_0_0
 edge_13_10_0_0 edge_13_11_0_0 edge_13_12_0_0 edge_13_14_0_0 edge_13_15_0_0
 edge_13_16_0_0 edge_13_17_0_0 edge_13_18_0_0 edge_13_19_0_0 edge_13_20_0_0
 edge_13_21_0_0 edge_13_22_0_0 edge_14_1_0_0 edge_14_8_0_0 edge_14_10_0_0
 edge_14_11_0_0 edge_14_12_0_0 edge_14_13_0_0 edge_14_15_0_0 edge_14_16_0_0
 edge_14_17_0_0 edge_15_12_0_0 edge_15_13_0_0 edge_15_14_0_0 edge_15_16_0_0
 edge_15_17_0_0 edge_15_18_0_0 edge_15_19_0_0 edge_15_20_0_0 edge_15_21_0_0
 edge_16_1_0_0 edge_16_3_0_0 edge_16_4_0_0 edge_16_6_0_0 edge_16_11_0_0
 edge_16_12_0_0 edge_16_13_0_0 edge_16_14_0_0 edge_16_15_0_0 edge_16_17_0_0
 edge_16_18_0_0 edge_16_19_0_0 edge_16_20_0_0 edge_16_21_0_0 edge_16_22_0_0
 edge_17_1_0_0 edge_17_3_0_0 edge_17_4_0_0 edge_17_6_0_0 edge_17_8_0_0
 edge_17_10_0_0 edge_17_11_0_0 edge_17_12_0_0 edge_17_13_0_0 edge_17_14_0_0
 edge_17_15_0_0 edge_17_16_0_0 edge_17_18_0_0 edge_17_19_0_0 edge_17_20_0_0
 edge_17_21_0_0 edge_17_22_0_0 edge_18_1_0_0 edge_18_4_0_0 edge_18_8_0_0
 edge_18_15_0_0 edge_18_16_0_0 edge_18_18_0_0 edge_18_19_0_0 edge_18_21_0_0
 edge_18_22_0_0 edge_19_17_0_0 edge_19_18_0_0 edge_19_20_0_0 edge_19_21_0_0
 edge_19_22_0_0 edge_20_19_0_0 edge_21_1_0_0 edge_21_3_0_0 edge_21_4_0_0
 edge_21_8_0_0 edge_21_10_0_0 edge_21_11_0_0 edge_21_12_0_0 edge_21_13_0_0
 edge_21_15_0_0 edge_21_16_0_0 edge_21_17_0_0 edge_21_18_0_0 edge_21_19_0_0
 edge_21_20_0_0 edge_21_22_0_0 edge_22_19_0_0 edge_22_21_0_0
End
